MAXIMIZE
OBJ:  +7.89x0 -5.03x1 -7.95x2 +2.87x3 -33.11x4 -5.10x5 +33.54x6
SUBJECT TO

C0:  +0.36x0 +13.39x1 +9.40x2 +5.38x3 +3.22x4 +13.98x5 +17.30x6 + s0 = 124.67
C1:  +13.17x0 +10.67x1 +7.14x2 +9.44x3 +2.89x4 +1.03x5 +11.43x6 + s1 = 84.48
C2:  +15.32x0 +1.91x1 +4.28x2 +17.00x3 -0.53x4 +15.00x5 +8.99x6 + s2 = 132.01
Binary
General
x4
x5
x6
END